W=7;
H=5;

MAX_TIME=20;
MAX_TRACKS=20;

TARGET=(3,7);

TRAINS=[(3,3,RIGHT),(3,1,RIGHT)];

INIT_POS=[
(2,5,STRAIGHT_TD),
(3,1,STRAIGHT_RL),
(3,3,STRAIGHT_RL),
(3,5,DSWITCH_R_L_T),
(3,6,DSWITCH_R_L_D),
(3,7,STRAIGHT_RL),
(4,3,CORNER_DR),
(4,6,CORNER_TL),
];
TUNNEL_PAIRS=[];

GATES=[];
ACTIVATIONS=[
(2,5,1),
(4,6,2),
];

DSWITCHES=[
(3,5,2),
(3,6,1),
];
STATIONS=[];
